70
150
105	2
103	1
102	2
101	2
100	5
98	4
97	3
96	8
94	1
93	3
92	1
91	9
90	3
89	1
88	3
87	4
86	3
85	3
84	1
83	1
82	2
81	3
80	5
79	4
78	1
77	2
76	1
75	4
74	4
73	4
72	3
71	2
70	2
69	3
68	2
67	4
66	3
65	3
64	3
63	2
61	2
60	4
59	1
58	1
57	2
56	6
55	3
54	3
53	1
52	1
51	3
50	5
49	3
48	3
47	1
46	4
45	3
44	6
43	2
42	1
40	2
39	2
38	3
37	2
36	6
35	4
34	3
32	3
31	2
30	1
